NAME : amz1211.150657_150657.tour
COMMENT : Cost = 150657_150657
COMMENT : Found by LKH-AMZ [Keld Helsgaun] Sun May 11 13:03:03 2025
COMMENT : TW viol.: 0 #: 0
TYPE : TOUR
DIMENSION : 154
TOUR_SECTION
29
94
5
151
69
147
98
112
154
15
118
54
103
135
66
95
67
121
13
148
138
10
113
142
52
108
68
34
75
128
93
86
101
27
18
12
42
106
71
30
44
134
150
78
55
40
6
58
77
63
122
126
22
4
35
137
152
24
47
96
41
39
62
117
79
19
144
136
56
90
88
59
70
116
133
99
127
46
26
33
124
60
130
53
143
125
11
109
74
97
9
82
61
107
85
91
105
49
37
2
132
92
110
76
104
81
3
65
114
8
16
72
45
149
14
111
153
129
146
119
1
64
31
87
28
115
25
21
120
83
140
50
80
38
51
7
36
131
20
48
102
141
17
73
139
84
23
89
32
145
100
123
57
43
-1
EOF
